%%% static parameters %%%
timespan = 1;
Fact = [3];
Distr1 = [10];
Distr2 = [20];
Clients_N = [40];
Demand_W = [15];
Lt0 = [4];
Lt1 = [4];
SS_ = [0.85];
DS_D = [7];
K = [200];
MA = [500];
%%% dynamic parameters %%%
lost_ratio_sales_ret_th = 0.05006542292057048;
lost_ratio_sales_ret_w = 81;
lost_ratio_sales_dis_th = 5.0852854067695574e-06;
lost_ratio_sales_dis_w = 4;
lost_ratio_sales_fac_th = 0.03340202340287912;
lost_ratio_sales_fac_w = 26;
stock_customer_MA_mean_relative_th = 0.20640264645798556;
stock_customer_MA_mean_relative_w = 35;
stock_distributor_MA_mean_relative_th = 0.9657552152900504;
stock_distributor_MA_mean_relative_w = 54;
stock_retailer_MA_mean_relative_th = 0.48228744274375057;
stock_retailer_MA_mean_relative_w = 51;
stock_factory_MA_mean_relative_th = 0.4502325704258815;
stock_factory_MA_mean_relative_w = 9;
